p edge 47 236
e 1 2 9
e 1 4 3
e 1 7 8
e 1 9 9
e 1 13 7
e 1 15 5
e 1 18 3
e 1 20 4
e 1 25 6
e 1 27 1
e 1 30 6
e 1 32 4
e 1 36 10
e 1 38 4
e 1 41 5
e 1 43 7
e 2 3 10
e 2 6 5
e 2 8 9
e 2 12 1
e 2 14 9
e 2 17 6
e 2 19 4
e 2 24 3
e 2 26 9
e 2 29 8
e 2 31 9
e 2 35 5
e 2 37 1
e 2 40 7
e 2 42 4
e 3 5 10
e 3 7 8
e 3 10 10
e 3 13 8
e 3 16 1
e 3 18 10
e 3 21 10
e 3 25 8
e 3 28 9
e 3 30 1
e 3 33 9
e 3 36 10
e 3 39 1
e 3 41 9
e 3 44 7
e 4 5 8
e 4 6 5
e 4 10 7
e 4 12 4
e 4 16 8
e 4 17 1
e 4 21 9
e 4 24 1
e 4 28 10
e 4 29 7
e 4 33 7
e 4 35 9
e 4 39 5
e 4 40 7
e 4 44 1
e 5 8 5
e 5 9 1
e 5 14 7
e 5 15 2
e 5 19 7
e 5 20 2
e 5 26 4
e 5 27 3
e 5 31 9
e 5 32 2
e 5 37 1
e 5 38 7
e 5 42 3
e 5 43 2
e 6 11 2
e 6 13 5
e 6 15 7
e 6 22 6
e 6 25 9
e 6 27 3
e 6 34 1
e 6 36 5
e 6 38 3
e 6 45 7
e 7 11 10
e 7 12 7
e 7 14 6
e 7 22 9
e 7 24 5
e 7 26 8
e 7 34 9
e 7 35 2
e 7 37 2
e 7 45 7
e 8 11 10
e 8 13 4
e 8 16 10
e 8 22 3
e 8 25 10
e 8 28 3
e 8 34 3
e 8 36 4
e 8 39 3
e 8 45 4
e 9 11 8
e 9 12 3
e 9 16 4
e 9 22 7
e 9 24 10
e 9 28 8
e 9 34 9
e 9 35 10
e 9 39 10
e 9 45 6
e 10 11 8
e 10 14 2
e 10 15 9
e 10 22 2
e 10 26 8
e 10 27 4
e 10 34 8
e 10 37 7
e 10 38 3
e 10 45 10
e 11 17 5
e 11 18 8
e 11 19 2
e 11 20 5
e 11 21 1
e 11 29 10
e 11 30 7
e 11 31 8
e 11 32 4
e 11 33 3
e 11 40 3
e 11 41 4
e 11 42 4
e 11 43 4
e 11 44 2
e 12 23 3
e 12 25 2
e 12 27 8
e 12 30 1
e 12 32 2
e 12 46 2
e 13 23 8
e 13 24 6
e 13 26 9
e 13 29 6
e 13 31 4
e 13 46 5
e 14 23 1
e 14 25 6
e 14 28 3
e 14 30 10
e 14 33 3
e 14 46 9
e 15 23 1
e 15 24 3
e 15 28 3
e 15 29 9
e 15 33 3
e 15 46 10
e 16 23 2
e 16 26 7
e 16 27 2
e 16 31 10
e 16 32 1
e 16 46 7
e 17 23 5
e 17 25 5
e 17 27 3
e 17 34 5
e 17 46 2
e 18 23 6
e 18 24 5
e 18 26 6
e 18 34 6
e 18 46 9
e 19 23 10
e 19 25 5
e 19 28 10
e 19 34 10
e 19 46 1
e 20 23 4
e 20 24 7
e 20 28 4
e 20 34 3
e 20 46 5
e 21 23 1
e 21 26 10
e 21 27 8
e 21 34 8
e 21 46 10
e 22 23 9
e 22 29 5
e 22 30 6
e 22 31 8
e 22 32 1
e 22 33 4
e 22 46 5
e 23 35 1
e 23 36 3
e 23 37 1
e 23 38 6
e 23 39 4
e 23 40 8
e 23 41 5
e 23 42 1
e 23 43 1
e 23 44 9
e 23 45 1
e 24 47 1
e 25 47 1
e 26 47 10
e 27 47 8
e 28 47 4
e 29 47 7
e 30 47 7
e 31 47 8
e 32 47 6
e 33 47 6
e 34 47 7
e 35 47 8
e 36 47 6
e 37 47 8
e 38 47 2
e 39 47 10
e 40 47 8
e 41 47 9
e 42 47 4
e 43 47 8
e 44 47 6
e 45 47 5
e 46 47 2